; benchmark generated from python API
(set-info :status unknown)
(declare-fun S_0 () Real)
(declare-fun S_2 () Real)
(declare-fun C () Real)
(declare-fun L_0 () Real)
(declare-fun S_1 () Real)
(declare-fun A_0 () Real)
(declare-fun L_1 () Real)
(declare-fun A_1 () Real)
(declare-fun A_3 () Real)
(declare-fun A_4 () Real)
(declare-fun S_3 () Real)
(declare-fun L_3 () Real)
(declare-fun S_4 () Real)
(declare-fun L_2 () Real)
(declare-fun A_2 () Real)
(assert
 (let (($x34 (>= L_0 0.0)))
 (let (($x820 (>= C 5.0)))
 (let (($x6369 (<= (+ A_4 (* (- 1.0) L_3) (* (- 5.0) C) (* (- 1.0) S_0)) 0.0)))
 (let (($x6429 (<= (+ A_4 (* (- 1.0) L_3) (* (- 1.0) A_0) (* (- 4.0) C) L_0) 0.0)))
 (let (($x7261 (<= (+ (* (- 1.0) A_3) A_1 (* (- 1.0) L_1) (* 2.0 C) L_3) (- 5.0))))
 (let ((?x250 (* (- 1.0) L_2)))
 (let ((?x365 (* (- 1.0) A_3)))
 (let ((?x1325 (+ ?x365 A_2 ?x250 C L_3)))
 (let (($x6324 (<= ?x1325 (- 5.0))))
 (let (($x71 (= L_3 L_2)))
 (let (($x6801 (<= (+ A_4 (* (- 1.0) L_3) (* (- 1.0) A_1) L_1 (* (- 3.0) C)) 0.0)))
 (let (($x2952 (<= (+ A_1 (* (- 1.0) S_3) (* (- 1.0) L_1) C) 0.0)))
 (let (($x1103 (<= (+ A_2 (* (- 1.0) S_3) ?x250) 0.0)))
 (let (($x5388 (or $x1103 (<= (+ (* (- 1.0) S_3) (* 2.0 C) S_0) 0.0) $x2952)))
 (let (($x2975 (<= (+ A_1 (* (- 1.0) S_2) (* (- 1.0) L_1)) 0.0)))
 (let (($x61 (= L_2 L_1)))
 (let (($x7147 (or $x61 (<= (+ (* (- 1.0) A_2) (* 2.0 C) S_0 L_2) (- 5.0)) (<= (+ (* (- 1.0) A_2) A_1 (* (- 1.0) L_1) C L_2) (- 5.0)))))
 (let (($x6364 (<= (+ A_4 (* (- 1.0) L_3) (* (- 4.0) C) (* (- 1.0) S_1)) 0.0)))
 (let (($x489 (<= (+ A_4 (* (- 1.0) L_3) (* (- 1.0) A_2) L_2 (* (- 2.0) C)) 0.0)))
 (let (($x7030 (<= (+ A_4 (* (- 1.0) L_3) (* (- 1.0) A_1) (* (- 3.0) C) L_1) (- 5.0))))
 (let (($x51 (= L_1 L_0)))
 (let (($x7050 (or $x51 (<= (+ (* (- 1.0) A_1) S_3 (* (- 2.0) C) L_1) (- 5.0)))))
 (let (($x6414 (<= (+ A_4 (* (- 1.0) L_3) (* (- 1.0) S_3) (* (- 2.0) C)) 0.0)))
 (let (($x6885 (<= 0.0 (+ A_3 (* (- 1.0) A_1) (* (- 1.0) L_3) (* (- 2.0) C) L_1))))
 (let (($x1320 (<= (+ ?x365 A_2 A_1 ?x250 (* (- 1.0) S_1) (* (- 1.0) L_1) L_3) 0.0)))
 (let (($x12491 (or $x51 (<= (+ (* (- 1.0) A_1) S_2 (* (- 1.0) C) L_1) (- 5.0)))))
 (let ((?x233 (* (- 1.0) L_1)))
 (let ((?x1033 (* (- 1.0) S_0)))
 (let ((?x291 (* (- 1.0) C)))
 (let (($x12712 (or $x71 (<= (+ ?x365 A_2 A_1 ?x250 ?x291 ?x1033 ?x233 L_3) 0.0) $x6885)))
 (let (($x1337 (<= (+ ?x365 A_2 A_1 (* (- 1.0) A_0) ?x250 ?x233 L_3 L_0) 0.0)))
 (let (($x1089 (<= (+ ?x365 A_2 A_1 ?x250 C (* (- 1.0) S_2) ?x233 L_3) 0.0)))
 (let ((?x267 (* (- 1.0) L_3)))
 (let ((?x360 (* (- 1.0) A_1)))
 (let ((?x362 (* (- 1.0) A_2)))
 (let (($x12415 (or $x51 (<= (+ A_3 ?x362 ?x360 L_2 ?x291 S_1 L_1 ?x267) 0.0))))
 (let (($x12813 (or $x61 (= (+ ?x362 A_1 C ?x233 L_2) 0.0) (not (<= 0.0 (+ ?x362 A_1 ?x233 C L_2))))))
 (let (($x6579 (not (<= 0.0 (+ L_1 ?x250)))))
 (let ((?x1038 (+ ?x362 C S_1 L_2)))
 (let (($x421 (<= 0.0 ?x1038)))
 (let (($x108 (>= S_1 S_0)))
 (let (($x111 (>= S_2 S_1)))
 (let (($x114 (>= S_3 S_2)))
 (let (($x119 (>= A_1 A_0)))
 (let (($x120 (>= A_2 A_1)))
 (let (($x121 (>= A_3 A_2)))
 (let (($x122 (>= A_4 A_3)))
 (and (<= (+ A_4 ?x267) S_4) $x122 $x121 $x120 $x119 $x114 $x111 $x108 (or (not (<= 0.0 (+ ?x233 L_0))) $x51) (or $x421 (<= (+ (* (- 1.0) S_3) C S_1) 0.0)) (or $x71 (not (<= 0.0 (+ L_2 ?x267)))) (or (not $x421) $x1103) (or $x71 (<= (+ L_3 ?x365 A_2 ?x250 C) 0.0)) (or $x61 (<= 0.0 ?x1325)) (or $x71 (<= (+ A_4 ?x365 ?x291) (- 5.0))) (or $x61 $x6579) (or $x51 (<= 0.0 (+ ?x362 A_1 C)) $x6579) (or $x71 (<= (+ ?x365 S_3 L_3) (- 5.0))) (or $x71 $x6324 (<= (+ ?x365 (* 2.0 C) S_1 L_3) (- 5.0))) (<= (+ S_3 (* (- 4.0) C) ?x1033) 0.0) (or $x51 (<= (+ ?x360 S_1 L_1) (- 5.0))) (or $x61 (<= (+ ?x362 S_2 L_2) (- 5.0))) (<= (+ ?x360 S_3 L_1 (* (- 2.0) C)) 0.0) (or $x51 (<= 0.0 (+ ?x362 A_1 ?x233 C L_2))) $x12813 (or $x61 (<= (+ ?x362 S_3 ?x291 L_2) (- 5.0))) (<= (+ A_4 ?x267 (* (- 3.0) C) (* (- 1.0) S_2)) 0.0) (or $x61 (<= (+ A_4 ?x267 ?x362 (* (- 2.0) C) L_2) (- 5.0))) $x12415 (or $x51 (<= (+ ?x360 C S_0 L_1) (- 5.0))) (or $x51 (<= (+ A_3 ?x360 (* (- 2.0) C) L_1 ?x267) 0.0)) (or $x51 (<= (+ A_3 ?x362 ?x360 L_2 S_0 L_1 ?x267) 0.0)) (or $x71 $x1089 $x6885) (or $x71 $x1337 $x6885) (or $x71 $x6324 $x6885) $x12712 $x12491 (or $x71 $x1320 $x6885) (or $x71 $x1103 $x6885) (<= (+ ?x362 S_3 L_2 ?x291) 0.0) $x6414 (<= (+ ?x362 L_2 S_2) 0.0) (<= (+ (* (- 1.0) A_0) S_3 (* (- 3.0) C) L_0) 0.0) $x7050 (<= (+ S_3 (* (- 2.0) C) (* (- 1.0) S_2)) 0.0) (<= (+ S_3 (* (- 3.0) C) (* (- 1.0) S_1)) 0.0) (or $x51 $x7030) $x489 $x6364 (or $x61 (<= ?x1038 (- 5.0))) $x7147 (or (<= (+ C (* (- 1.0) S_2) S_0) 0.0) $x2975) (<= (+ ?x360 S_2 L_1 ?x291) 0.0) $x5388 $x6801 (or $x71 (<= (+ ?x365 C S_2 L_3) (- 5.0))) (<= (+ (* (- 1.0) A_0) (* (- 2.0) C) S_2 L_0) 0.0) (<= (+ (* (- 2.0) C) S_2 (* (- 1.0) S_1)) 0.0) (or $x71 $x6324 (<= (+ ?x365 (* 3.0 C) S_0 L_3) (- 5.0)) $x7261) $x6429 $x6369 $x820 $x34 (<= (+ (* (- 1.0) A_4) L_3 S_4) 0.0) (<= (+ (* (- 1.0) A_0) S_0 L_0) 0.0) (<= (+ L_3 ?x365 S_3) 0.0) (<= (+ (* (- 2.0) C) S_1 ?x1033) 0.0) (<= (+ A_4 ?x365 ?x291) 0.0) (<= (+ ?x360 S_1 L_1) 0.0) (<= (+ (* (- 1.0) A_0) ?x291 S_1 L_0) 0.0) (<= (+ (* (- 3.0) C) S_2 ?x1033) 0.0))))))))))))))))))))))))))))))))))))))))))))))))))
(check-sat)
